c User generated cnf file
p cnf 15 23
13 -1 3 0 
10 10 -10 0 
6 -14 14 0 
14 3 -12 0 
15 15 -13 0 
-1 4 3 0 
-3 6 14 0 
6 -6 10 0 
14 12 -1 0 
12 -9 2 0 
5 14 -5 0 
8 -13 1 0 
-2 12 2 0 
-9 8 10 0 
-10 9 6 0 
15 2 -10 0 
-6 15 5 0 
11 4 -1 0 
14 -3 4 0 
2 1 -2 0 
12 -15 12 0 
-3 15 5 0 
-8 3 2 0 
